(set-info :category "industrial")
(set-info :status sat)
(declare-fun x02 () (_ BitVec 8))
(declare-fun x03 () (_ BitVec 8))
(declare-fun x04 () (_ BitVec 8))
(declare-fun x06 () (_ BitVec 8))
(declare-fun x10 () (_ BitVec 8))
(declare-fun x12 () (_ BitVec 8))
(declare-fun x14 () (_ BitVec 8))
(declare-fun x16 () (_ BitVec 8))
(declare-fun x18 () (_ BitVec 8))
(declare-fun x20 () (_ BitVec 8))
(declare-fun x21 () (_ BitVec 8))
(declare-fun x22 () (_ BitVec 8))
(declare-fun x23 () (_ BitVec 8))
(declare-fun x25 () (_ BitVec 8))
(declare-fun x26 () (_ BitVec 8))
(declare-fun x27 () (_ BitVec 8))
(declare-fun x31 () (_ BitVec 8))
(declare-fun x32 () (_ BitVec 8))
(declare-fun x34 () (_ BitVec 8))
(declare-fun x35 () (_ BitVec 8))
(declare-fun x38 () (_ BitVec 8))
(declare-fun x42 () (_ BitVec 8))
(declare-fun x43 () (_ BitVec 8))
(declare-fun x46 () (_ BitVec 8))
(declare-fun x47 () (_ BitVec 8))
(declare-fun x51 () (_ BitVec 8))
(declare-fun x52 () (_ BitVec 8))
(declare-fun x53 () (_ BitVec 8))
(declare-fun x54 () (_ BitVec 8))
(declare-fun x55 () (_ BitVec 8))
(declare-fun x57 () (_ BitVec 8))
(declare-fun x61 () (_ BitVec 8))
(declare-fun x62 () (_ BitVec 8))
(declare-fun x65 () (_ BitVec 8))
(declare-fun x66 () (_ BitVec 8))
(declare-fun x68 () (_ BitVec 8))
(declare-fun x70 () (_ BitVec 8))
(declare-fun x72 () (_ BitVec 8))
(declare-fun x73 () (_ BitVec 8))
(declare-fun x75 () (_ BitVec 8))
(declare-fun x76 () (_ BitVec 8))
(declare-fun x77 () (_ BitVec 8))
(declare-fun x78 () (_ BitVec 8))
(declare-fun x80 () (_ BitVec 8))
(declare-fun x81 () (_ BitVec 8))
(declare-fun x83 () (_ BitVec 8))
(declare-fun x88 () (_ BitVec 8))
(assert (bvult x02 (_ bv9 8)))
(assert (bvult x03 (_ bv9 8)))
(assert (bvult x04 (_ bv9 8)))
(assert (bvult x06 (_ bv9 8)))
(assert (bvult x10 (_ bv9 8)))
(assert (bvult x12 (_ bv9 8)))
(assert (bvult x14 (_ bv9 8)))
(assert (bvult x16 (_ bv9 8)))
(assert (bvult x18 (_ bv9 8)))
(assert (bvult x20 (_ bv9 8)))
(assert (bvult x21 (_ bv9 8)))
(assert (bvult x22 (_ bv9 8)))
(assert (bvult x23 (_ bv9 8)))
(assert (bvult x25 (_ bv9 8)))
(assert (bvult x26 (_ bv9 8)))
(assert (bvult x27 (_ bv9 8)))
(assert (bvult x31 (_ bv9 8)))
(assert (bvult x32 (_ bv9 8)))
(assert (bvult x34 (_ bv9 8)))
(assert (bvult x35 (_ bv9 8)))
(assert (bvult x38 (_ bv9 8)))
(assert (bvult x42 (_ bv9 8)))
(assert (bvult x43 (_ bv9 8)))
(assert (bvult x46 (_ bv9 8)))
(assert (bvult x47 (_ bv9 8)))
(assert (bvult x51 (_ bv9 8)))
(assert (bvult x52 (_ bv9 8)))
(assert (bvult x53 (_ bv9 8)))
(assert (bvult x54 (_ bv9 8)))
(assert (bvult x55 (_ bv9 8)))
(assert (bvult x57 (_ bv9 8)))
(assert (bvult x61 (_ bv9 8)))
(assert (bvult x62 (_ bv9 8)))
(assert (bvult x65 (_ bv9 8)))
(assert (bvult x66 (_ bv9 8)))
(assert (bvult x68 (_ bv9 8)))
(assert (bvult x70 (_ bv9 8)))
(assert (bvult x72 (_ bv9 8)))
(assert (bvult x73 (_ bv9 8)))
(assert (bvult x75 (_ bv9 8)))
(assert (bvult x76 (_ bv9 8)))
(assert (bvult x77 (_ bv9 8)))
(assert (bvult x78 (_ bv9 8)))
(assert (bvult x80 (_ bv9 8)))
(assert (bvult x81 (_ bv9 8)))
(assert (bvult x83 (_ bv9 8)))
(assert (bvult x88 (_ bv9 8)))
(assert (not (= (_ bv6 8) (_ bv4 8))))
(assert (not (= (_ bv6 8) x02)))
(assert (not (= (_ bv6 8) x03)))
(assert (not (= (_ bv6 8) x04)))
(assert (not (= (_ bv6 8) (_ bv5 8))))
(assert (not (= (_ bv6 8) x06)))
(assert (not (= (_ bv6 8) (_ bv2 8))))
(assert (not (= (_ bv6 8) (_ bv1 8))))
(assert (not (= (_ bv4 8) x02)))
(assert (not (= (_ bv4 8) x03)))
(assert (not (= (_ bv4 8) x04)))
(assert (not (= (_ bv4 8) (_ bv5 8))))
(assert (not (= (_ bv4 8) x06)))
(assert (not (= (_ bv4 8) (_ bv2 8))))
(assert (not (= (_ bv4 8) (_ bv1 8))))
(assert (not (= x02 x03)))
(assert (not (= x02 x04)))
(assert (not (= x02 (_ bv5 8))))
(assert (not (= x02 x06)))
(assert (not (= x02 (_ bv2 8))))
(assert (not (= x02 (_ bv1 8))))
(assert (not (= x03 x04)))
(assert (not (= x03 (_ bv5 8))))
(assert (not (= x03 x06)))
(assert (not (= x03 (_ bv2 8))))
(assert (not (= x03 (_ bv1 8))))
(assert (not (= x04 (_ bv5 8))))
(assert (not (= x04 x06)))
(assert (not (= x04 (_ bv2 8))))
(assert (not (= x04 (_ bv1 8))))
(assert (not (= (_ bv5 8) x06)))
(assert (not (= (_ bv5 8) (_ bv2 8))))
(assert (not (= (_ bv5 8) (_ bv1 8))))
(assert (not (= x06 (_ bv2 8))))
(assert (not (= x06 (_ bv1 8))))
(assert (not (= (_ bv2 8) (_ bv1 8))))
(assert (not (= x10 (_ bv8 8))))
(assert (not (= x10 x12)))
(assert (not (= x10 (_ bv6 8))))
(assert (not (= x10 x14)))
(assert (not (= x10 (_ bv3 8))))
(assert (not (= x10 x16)))
(assert (not (= x10 (_ bv7 8))))
(assert (not (= x10 x18)))
(assert (not (= (_ bv8 8) x12)))
(assert (not (= (_ bv8 8) (_ bv6 8))))
(assert (not (= (_ bv8 8) x14)))
(assert (not (= (_ bv8 8) (_ bv3 8))))
(assert (not (= (_ bv8 8) x16)))
(assert (not (= (_ bv8 8) (_ bv7 8))))
(assert (not (= (_ bv8 8) x18)))
(assert (not (= x12 (_ bv6 8))))
(assert (not (= x12 x14)))
(assert (not (= x12 (_ bv3 8))))
(assert (not (= x12 x16)))
(assert (not (= x12 (_ bv7 8))))
(assert (not (= x12 x18)))
(assert (not (= (_ bv6 8) x14)))
(assert (not (= (_ bv6 8) (_ bv3 8))))
(assert (not (= (_ bv6 8) x16)))
(assert (not (= (_ bv6 8) (_ bv7 8))))
(assert (not (= (_ bv6 8) x18)))
(assert (not (= x14 (_ bv3 8))))
(assert (not (= x14 x16)))
(assert (not (= x14 (_ bv7 8))))
(assert (not (= x14 x18)))
(assert (not (= (_ bv3 8) x16)))
(assert (not (= (_ bv3 8) (_ bv7 8))))
(assert (not (= (_ bv3 8) x18)))
(assert (not (= x16 (_ bv7 8))))
(assert (not (= x16 x18)))
(assert (not (= (_ bv7 8) x18)))
(assert (not (= x20 x21)))
(assert (not (= x20 x22)))
(assert (not (= x20 x23)))
(assert (not (= x20 (_ bv2 8))))
(assert (not (= x20 x25)))
(assert (not (= x20 x26)))
(assert (not (= x20 x27)))
(assert (not (= x20 (_ bv9 8))))
(assert (not (= x21 x22)))
(assert (not (= x21 x23)))
(assert (not (= x21 (_ bv2 8))))
(assert (not (= x21 x25)))
(assert (not (= x21 x26)))
(assert (not (= x21 x27)))
(assert (not (= x21 (_ bv9 8))))
(assert (not (= x22 x23)))
(assert (not (= x22 (_ bv2 8))))
(assert (not (= x22 x25)))
(assert (not (= x22 x26)))
(assert (not (= x22 x27)))
(assert (not (= x22 (_ bv9 8))))
(assert (not (= x23 (_ bv2 8))))
(assert (not (= x23 x25)))
(assert (not (= x23 x26)))
(assert (not (= x23 x27)))
(assert (not (= x23 (_ bv9 8))))
(assert (not (= (_ bv2 8) x25)))
(assert (not (= (_ bv2 8) x26)))
(assert (not (= (_ bv2 8) x27)))
(assert (not (= (_ bv2 8) (_ bv9 8))))
(assert (not (= x25 x26)))
(assert (not (= x25 x27)))
(assert (not (= x25 (_ bv9 8))))
(assert (not (= x26 x27)))
(assert (not (= x26 (_ bv9 8))))
(assert (not (= x27 (_ bv9 8))))
(assert (not (= (_ bv5 8) x31)))
(assert (not (= (_ bv5 8) x32)))
(assert (not (= (_ bv5 8) (_ bv8 8))))
(assert (not (= (_ bv5 8) x34)))
(assert (not (= (_ bv5 8) x35)))
(assert (not (= (_ bv5 8) (_ bv2 8))))
(assert (not (= (_ bv5 8) (_ bv6 8))))
(assert (not (= (_ bv5 8) x38)))
(assert (not (= x31 x32)))
(assert (not (= x31 (_ bv8 8))))
(assert (not (= x31 x34)))
(assert (not (= x31 x35)))
(assert (not (= x31 (_ bv2 8))))
(assert (not (= x31 (_ bv6 8))))
(assert (not (= x31 x38)))
(assert (not (= x32 (_ bv8 8))))
(assert (not (= x32 x34)))
(assert (not (= x32 x35)))
(assert (not (= x32 (_ bv2 8))))
(assert (not (= x32 (_ bv6 8))))
(assert (not (= x32 x38)))
(assert (not (= (_ bv8 8) x34)))
(assert (not (= (_ bv8 8) x35)))
(assert (not (= (_ bv8 8) (_ bv2 8))))
(assert (not (= (_ bv8 8) (_ bv6 8))))
(assert (not (= (_ bv8 8) x38)))
(assert (not (= x34 x35)))
(assert (not (= x34 (_ bv2 8))))
(assert (not (= x34 (_ bv6 8))))
(assert (not (= x34 x38)))
(assert (not (= x35 (_ bv2 8))))
(assert (not (= x35 (_ bv6 8))))
(assert (not (= x35 x38)))
(assert (not (= (_ bv2 8) (_ bv6 8))))
(assert (not (= (_ bv2 8) x38)))
(assert (not (= (_ bv6 8) x38)))
(assert (not (= (_ bv1 8) (_ bv3 8))))
(assert (not (= (_ bv1 8) x42)))
(assert (not (= (_ bv1 8) x43)))
(assert (not (= (_ bv1 8) (_ bv6 8))))
(assert (not (= (_ bv1 8) (_ bv7 8))))
(assert (not (= (_ bv1 8) x46)))
(assert (not (= (_ bv1 8) x47)))
(assert (not (= (_ bv1 8) (_ bv4 8))))
(assert (not (= (_ bv3 8) x42)))
(assert (not (= (_ bv3 8) x43)))
(assert (not (= (_ bv3 8) (_ bv6 8))))
(assert (not (= (_ bv3 8) (_ bv7 8))))
(assert (not (= (_ bv3 8) x46)))
(assert (not (= (_ bv3 8) x47)))
(assert (not (= (_ bv3 8) (_ bv4 8))))
(assert (not (= x42 x43)))
(assert (not (= x42 (_ bv6 8))))
(assert (not (= x42 (_ bv7 8))))
(assert (not (= x42 x46)))
(assert (not (= x42 x47)))
(assert (not (= x42 (_ bv4 8))))
(assert (not (= x43 (_ bv6 8))))
(assert (not (= x43 (_ bv7 8))))
(assert (not (= x43 x46)))
(assert (not (= x43 x47)))
(assert (not (= x43 (_ bv4 8))))
(assert (not (= (_ bv6 8) (_ bv7 8))))
(assert (not (= (_ bv6 8) x46)))
(assert (not (= (_ bv6 8) x47)))
(assert (not (= (_ bv6 8) (_ bv4 8))))
(assert (not (= (_ bv7 8) x46)))
(assert (not (= (_ bv7 8) x47)))
(assert (not (= (_ bv7 8) (_ bv4 8))))
(assert (not (= x46 x47)))
(assert (not (= x46 (_ bv4 8))))
(assert (not (= x47 (_ bv4 8))))
(assert (not (= (_ bv2 8) x51)))
(assert (not (= (_ bv2 8) x52)))
(assert (not (= (_ bv2 8) x53)))
(assert (not (= (_ bv2 8) x54)))
(assert (not (= (_ bv2 8) x55)))
(assert (not (= (_ bv2 8) (_ bv1 8))))
(assert (not (= (_ bv2 8) x57)))
(assert (not (= (_ bv2 8) (_ bv3 8))))
(assert (not (= x51 x52)))
(assert (not (= x51 x53)))
(assert (not (= x51 x54)))
(assert (not (= x51 x55)))
(assert (not (= x51 (_ bv1 8))))
(assert (not (= x51 x57)))
(assert (not (= x51 (_ bv3 8))))
(assert (not (= x52 x53)))
(assert (not (= x52 x54)))
(assert (not (= x52 x55)))
(assert (not (= x52 (_ bv1 8))))
(assert (not (= x52 x57)))
(assert (not (= x52 (_ bv3 8))))
(assert (not (= x53 x54)))
(assert (not (= x53 x55)))
(assert (not (= x53 (_ bv1 8))))
(assert (not (= x53 x57)))
(assert (not (= x53 (_ bv3 8))))
(assert (not (= x54 x55)))
(assert (not (= x54 (_ bv1 8))))
(assert (not (= x54 x57)))
(assert (not (= x54 (_ bv3 8))))
(assert (not (= x55 (_ bv1 8))))
(assert (not (= x55 x57)))
(assert (not (= x55 (_ bv3 8))))
(assert (not (= (_ bv1 8) x57)))
(assert (not (= (_ bv1 8) (_ bv3 8))))
(assert (not (= x57 (_ bv3 8))))
(assert (not (= (_ bv3 8) x61)))
(assert (not (= (_ bv3 8) x62)))
(assert (not (= (_ bv3 8) (_ bv1 8))))
(assert (not (= (_ bv3 8) (_ bv5 8))))
(assert (not (= (_ bv3 8) x65)))
(assert (not (= (_ bv3 8) x66)))
(assert (not (= (_ bv3 8) (_ bv4 8))))
(assert (not (= (_ bv3 8) x68)))
(assert (not (= x61 x62)))
(assert (not (= x61 (_ bv1 8))))
(assert (not (= x61 (_ bv5 8))))
(assert (not (= x61 x65)))
(assert (not (= x61 x66)))
(assert (not (= x61 (_ bv4 8))))
(assert (not (= x61 x68)))
(assert (not (= x62 (_ bv1 8))))
(assert (not (= x62 (_ bv5 8))))
(assert (not (= x62 x65)))
(assert (not (= x62 x66)))
(assert (not (= x62 (_ bv4 8))))
(assert (not (= x62 x68)))
(assert (not (= (_ bv1 8) (_ bv5 8))))
(assert (not (= (_ bv1 8) x65)))
(assert (not (= (_ bv1 8) x66)))
(assert (not (= (_ bv1 8) (_ bv4 8))))
(assert (not (= (_ bv1 8) x68)))
(assert (not (= (_ bv5 8) x65)))
(assert (not (= (_ bv5 8) x66)))
(assert (not (= (_ bv5 8) (_ bv4 8))))
(assert (not (= (_ bv5 8) x68)))
(assert (not (= x65 x66)))
(assert (not (= x65 (_ bv4 8))))
(assert (not (= x65 x68)))
(assert (not (= x66 (_ bv4 8))))
(assert (not (= x66 x68)))
(assert (not (= (_ bv4 8) x68)))
(assert (not (= x70 (_ bv6 8))))
(assert (not (= x70 x72)))
(assert (not (= x70 x73)))
(assert (not (= x70 (_ bv4 8))))
(assert (not (= x70 x75)))
(assert (not (= x70 x76)))
(assert (not (= x70 x77)))
(assert (not (= x70 x78)))
(assert (not (= (_ bv6 8) x72)))
(assert (not (= (_ bv6 8) x73)))
(assert (not (= (_ bv6 8) (_ bv4 8))))
(assert (not (= (_ bv6 8) x75)))
(assert (not (= (_ bv6 8) x76)))
(assert (not (= (_ bv6 8) x77)))
(assert (not (= (_ bv6 8) x78)))
(assert (not (= x72 x73)))
(assert (not (= x72 (_ bv4 8))))
(assert (not (= x72 x75)))
(assert (not (= x72 x76)))
(assert (not (= x72 x77)))
(assert (not (= x72 x78)))
(assert (not (= x73 (_ bv4 8))))
(assert (not (= x73 x75)))
(assert (not (= x73 x76)))
(assert (not (= x73 x77)))
(assert (not (= x73 x78)))
(assert (not (= (_ bv4 8) x75)))
(assert (not (= (_ bv4 8) x76)))
(assert (not (= (_ bv4 8) x77)))
(assert (not (= (_ bv4 8) x78)))
(assert (not (= x75 x76)))
(assert (not (= x75 x77)))
(assert (not (= x75 x78)))
(assert (not (= x76 x77)))
(assert (not (= x76 x78)))
(assert (not (= x77 x78)))
(assert (not (= x80 x81)))
(assert (not (= x80 (_ bv9 8))))
(assert (not (= x80 x83)))
(assert (not (= x80 (_ bv8 8))))
(assert (not (= x80 (_ bv2 8))))
(assert (not (= x80 (_ bv7 8))))
(assert (not (= x80 (_ bv5 8))))
(assert (not (= x80 x88)))
(assert (not (= x81 (_ bv9 8))))
(assert (not (= x81 x83)))
(assert (not (= x81 (_ bv8 8))))
(assert (not (= x81 (_ bv2 8))))
(assert (not (= x81 (_ bv7 8))))
(assert (not (= x81 (_ bv5 8))))
(assert (not (= x81 x88)))
(assert (not (= (_ bv9 8) x83)))
(assert (not (= (_ bv9 8) (_ bv8 8))))
(assert (not (= (_ bv9 8) (_ bv2 8))))
(assert (not (= (_ bv9 8) (_ bv7 8))))
(assert (not (= (_ bv9 8) (_ bv5 8))))
(assert (not (= (_ bv9 8) x88)))
(assert (not (= x83 (_ bv8 8))))
(assert (not (= x83 (_ bv2 8))))
(assert (not (= x83 (_ bv7 8))))
(assert (not (= x83 (_ bv5 8))))
(assert (not (= x83 x88)))
(assert (not (= (_ bv8 8) (_ bv2 8))))
(assert (not (= (_ bv8 8) (_ bv7 8))))
(assert (not (= (_ bv8 8) (_ bv5 8))))
(assert (not (= (_ bv8 8) x88)))
(assert (not (= (_ bv2 8) (_ bv7 8))))
(assert (not (= (_ bv2 8) (_ bv5 8))))
(assert (not (= (_ bv2 8) x88)))
(assert (not (= (_ bv7 8) (_ bv5 8))))
(assert (not (= (_ bv7 8) x88)))
(assert (not (= (_ bv5 8) x88)))
(assert (not (= (_ bv6 8) x10)))
(assert (not (= (_ bv6 8) x20)))
(assert (not (= (_ bv6 8) (_ bv5 8))))
(assert (not (= (_ bv6 8) (_ bv1 8))))
(assert (not (= (_ bv6 8) (_ bv2 8))))
(assert (not (= (_ bv6 8) (_ bv3 8))))
(assert (not (= (_ bv6 8) x70)))
(assert (not (= (_ bv6 8) x80)))
(assert (not (= x10 x20)))
(assert (not (= x10 (_ bv5 8))))
(assert (not (= x10 (_ bv1 8))))
(assert (not (= x10 (_ bv2 8))))
(assert (not (= x10 (_ bv3 8))))
(assert (not (= x10 x70)))
(assert (not (= x10 x80)))
(assert (not (= x20 (_ bv5 8))))
(assert (not (= x20 (_ bv1 8))))
(assert (not (= x20 (_ bv2 8))))
(assert (not (= x20 (_ bv3 8))))
(assert (not (= x20 x70)))
(assert (not (= x20 x80)))
(assert (not (= (_ bv5 8) (_ bv1 8))))
(assert (not (= (_ bv5 8) (_ bv2 8))))
(assert (not (= (_ bv5 8) (_ bv3 8))))
(assert (not (= (_ bv5 8) x70)))
(assert (not (= (_ bv5 8) x80)))
(assert (not (= (_ bv1 8) (_ bv2 8))))
(assert (not (= (_ bv1 8) (_ bv3 8))))
(assert (not (= (_ bv1 8) x70)))
(assert (not (= (_ bv1 8) x80)))
(assert (not (= (_ bv2 8) (_ bv3 8))))
(assert (not (= (_ bv2 8) x70)))
(assert (not (= (_ bv2 8) x80)))
(assert (not (= (_ bv3 8) x70)))
(assert (not (= (_ bv3 8) x80)))
(assert (not (= x70 x80)))
(assert (not (= (_ bv4 8) (_ bv8 8))))
(assert (not (= (_ bv4 8) x21)))
(assert (not (= (_ bv4 8) x31)))
(assert (not (= (_ bv4 8) (_ bv3 8))))
(assert (not (= (_ bv4 8) x51)))
(assert (not (= (_ bv4 8) x61)))
(assert (not (= (_ bv4 8) (_ bv6 8))))
(assert (not (= (_ bv4 8) x81)))
(assert (not (= (_ bv8 8) x21)))
(assert (not (= (_ bv8 8) x31)))
(assert (not (= (_ bv8 8) (_ bv3 8))))
(assert (not (= (_ bv8 8) x51)))
(assert (not (= (_ bv8 8) x61)))
(assert (not (= (_ bv8 8) (_ bv6 8))))
(assert (not (= (_ bv8 8) x81)))
(assert (not (= x21 x31)))
(assert (not (= x21 (_ bv3 8))))
(assert (not (= x21 x51)))
(assert (not (= x21 x61)))
(assert (not (= x21 (_ bv6 8))))
(assert (not (= x21 x81)))
(assert (not (= x31 (_ bv3 8))))
(assert (not (= x31 x51)))
(assert (not (= x31 x61)))
(assert (not (= x31 (_ bv6 8))))
(assert (not (= x31 x81)))
(assert (not (= (_ bv3 8) x51)))
(assert (not (= (_ bv3 8) x61)))
(assert (not (= (_ bv3 8) (_ bv6 8))))
(assert (not (= (_ bv3 8) x81)))
(assert (not (= x51 x61)))
(assert (not (= x51 (_ bv6 8))))
(assert (not (= x51 x81)))
(assert (not (= x61 (_ bv6 8))))
(assert (not (= x61 x81)))
(assert (not (= (_ bv6 8) x81)))
(assert (not (= x02 x12)))
(assert (not (= x02 x22)))
(assert (not (= x02 x32)))
(assert (not (= x02 x42)))
(assert (not (= x02 x52)))
(assert (not (= x02 x62)))
(assert (not (= x02 x72)))
(assert (not (= x02 (_ bv9 8))))
(assert (not (= x12 x22)))
(assert (not (= x12 x32)))
(assert (not (= x12 x42)))
(assert (not (= x12 x52)))
(assert (not (= x12 x62)))
(assert (not (= x12 x72)))
(assert (not (= x12 (_ bv9 8))))
(assert (not (= x22 x32)))
(assert (not (= x22 x42)))
(assert (not (= x22 x52)))
(assert (not (= x22 x62)))
(assert (not (= x22 x72)))
(assert (not (= x22 (_ bv9 8))))
(assert (not (= x32 x42)))
(assert (not (= x32 x52)))
(assert (not (= x32 x62)))
(assert (not (= x32 x72)))
(assert (not (= x32 (_ bv9 8))))
(assert (not (= x42 x52)))
(assert (not (= x42 x62)))
(assert (not (= x42 x72)))
(assert (not (= x42 (_ bv9 8))))
(assert (not (= x52 x62)))
(assert (not (= x52 x72)))
(assert (not (= x52 (_ bv9 8))))
(assert (not (= x62 x72)))
(assert (not (= x62 (_ bv9 8))))
(assert (not (= x72 (_ bv9 8))))
(assert (not (= x03 (_ bv6 8))))
(assert (not (= x03 x23)))
(assert (not (= x03 (_ bv8 8))))
(assert (not (= x03 x43)))
(assert (not (= x03 x53)))
(assert (not (= x03 (_ bv1 8))))
(assert (not (= x03 x73)))
(assert (not (= x03 x83)))
(assert (not (= (_ bv6 8) x23)))
(assert (not (= (_ bv6 8) (_ bv8 8))))
(assert (not (= (_ bv6 8) x43)))
(assert (not (= (_ bv6 8) x53)))
(assert (not (= (_ bv6 8) (_ bv1 8))))
(assert (not (= (_ bv6 8) x73)))
(assert (not (= (_ bv6 8) x83)))
(assert (not (= x23 (_ bv8 8))))
(assert (not (= x23 x43)))
(assert (not (= x23 x53)))
(assert (not (= x23 (_ bv1 8))))
(assert (not (= x23 x73)))
(assert (not (= x23 x83)))
(assert (not (= (_ bv8 8) x43)))
(assert (not (= (_ bv8 8) x53)))
(assert (not (= (_ bv8 8) (_ bv1 8))))
(assert (not (= (_ bv8 8) x73)))
(assert (not (= (_ bv8 8) x83)))
(assert (not (= x43 x53)))
(assert (not (= x43 (_ bv1 8))))
(assert (not (= x43 x73)))
(assert (not (= x43 x83)))
(assert (not (= x53 (_ bv1 8))))
(assert (not (= x53 x73)))
(assert (not (= x53 x83)))
(assert (not (= (_ bv1 8) x73)))
(assert (not (= (_ bv1 8) x83)))
(assert (not (= x73 x83)))
(assert (not (= x04 x14)))
(assert (not (= x04 (_ bv2 8))))
(assert (not (= x04 x34)))
(assert (not (= x04 (_ bv6 8))))
(assert (not (= x04 x54)))
(assert (not (= x04 (_ bv5 8))))
(assert (not (= x04 (_ bv4 8))))
(assert (not (= x04 (_ bv8 8))))
(assert (not (= x14 (_ bv2 8))))
(assert (not (= x14 x34)))
(assert (not (= x14 (_ bv6 8))))
(assert (not (= x14 x54)))
(assert (not (= x14 (_ bv5 8))))
(assert (not (= x14 (_ bv4 8))))
(assert (not (= x14 (_ bv8 8))))
(assert (not (= (_ bv2 8) x34)))
(assert (not (= (_ bv2 8) (_ bv6 8))))
(assert (not (= (_ bv2 8) x54)))
(assert (not (= (_ bv2 8) (_ bv5 8))))
(assert (not (= (_ bv2 8) (_ bv4 8))))
(assert (not (= (_ bv2 8) (_ bv8 8))))
(assert (not (= x34 (_ bv6 8))))
(assert (not (= x34 x54)))
(assert (not (= x34 (_ bv5 8))))
(assert (not (= x34 (_ bv4 8))))
(assert (not (= x34 (_ bv8 8))))
(assert (not (= (_ bv6 8) x54)))
(assert (not (= (_ bv6 8) (_ bv5 8))))
(assert (not (= (_ bv6 8) (_ bv4 8))))
(assert (not (= (_ bv6 8) (_ bv8 8))))
(assert (not (= x54 (_ bv5 8))))
(assert (not (= x54 (_ bv4 8))))
(assert (not (= x54 (_ bv8 8))))
(assert (not (= (_ bv5 8) (_ bv4 8))))
(assert (not (= (_ bv5 8) (_ bv8 8))))
(assert (not (= (_ bv4 8) (_ bv8 8))))
(assert (not (= (_ bv5 8) (_ bv3 8))))
(assert (not (= (_ bv5 8) x25)))
(assert (not (= (_ bv5 8) x35)))
(assert (not (= (_ bv5 8) (_ bv7 8))))
(assert (not (= (_ bv5 8) x55)))
(assert (not (= (_ bv5 8) x65)))
(assert (not (= (_ bv5 8) x75)))
(assert (not (= (_ bv5 8) (_ bv2 8))))
(assert (not (= (_ bv3 8) x25)))
(assert (not (= (_ bv3 8) x35)))
(assert (not (= (_ bv3 8) (_ bv7 8))))
(assert (not (= (_ bv3 8) x55)))
(assert (not (= (_ bv3 8) x65)))
(assert (not (= (_ bv3 8) x75)))
(assert (not (= (_ bv3 8) (_ bv2 8))))
(assert (not (= x25 x35)))
(assert (not (= x25 (_ bv7 8))))
(assert (not (= x25 x55)))
(assert (not (= x25 x65)))
(assert (not (= x25 x75)))
(assert (not (= x25 (_ bv2 8))))
(assert (not (= x35 (_ bv7 8))))
(assert (not (= x35 x55)))
(assert (not (= x35 x65)))
(assert (not (= x35 x75)))
(assert (not (= x35 (_ bv2 8))))
(assert (not (= (_ bv7 8) x55)))
(assert (not (= (_ bv7 8) x65)))
(assert (not (= (_ bv7 8) x75)))
(assert (not (= (_ bv7 8) (_ bv2 8))))
(assert (not (= x55 x65)))
(assert (not (= x55 x75)))
(assert (not (= x55 (_ bv2 8))))
(assert (not (= x65 x75)))
(assert (not (= x65 (_ bv2 8))))
(assert (not (= x75 (_ bv2 8))))
(assert (not (= x06 x16)))
(assert (not (= x06 x26)))
(assert (not (= x06 (_ bv2 8))))
(assert (not (= x06 x46)))
(assert (not (= x06 (_ bv1 8))))
(assert (not (= x06 x66)))
(assert (not (= x06 x76)))
(assert (not (= x06 (_ bv7 8))))
(assert (not (= x16 x26)))
(assert (not (= x16 (_ bv2 8))))
(assert (not (= x16 x46)))
(assert (not (= x16 (_ bv1 8))))
(assert (not (= x16 x66)))
(assert (not (= x16 x76)))
(assert (not (= x16 (_ bv7 8))))
(assert (not (= x26 (_ bv2 8))))
(assert (not (= x26 x46)))
(assert (not (= x26 (_ bv1 8))))
(assert (not (= x26 x66)))
(assert (not (= x26 x76)))
(assert (not (= x26 (_ bv7 8))))
(assert (not (= (_ bv2 8) x46)))
(assert (not (= (_ bv2 8) (_ bv1 8))))
(assert (not (= (_ bv2 8) x66)))
(assert (not (= (_ bv2 8) x76)))
(assert (not (= (_ bv2 8) (_ bv7 8))))
(assert (not (= x46 (_ bv1 8))))
(assert (not (= x46 x66)))
(assert (not (= x46 x76)))
(assert (not (= x46 (_ bv7 8))))
(assert (not (= (_ bv1 8) x66)))
(assert (not (= (_ bv1 8) x76)))
(assert (not (= (_ bv1 8) (_ bv7 8))))
(assert (not (= x66 x76)))
(assert (not (= x66 (_ bv7 8))))
(assert (not (= x76 (_ bv7 8))))
(assert (not (= (_ bv2 8) (_ bv7 8))))
(assert (not (= (_ bv2 8) x27)))
(assert (not (= (_ bv2 8) (_ bv6 8))))
(assert (not (= (_ bv2 8) x47)))
(assert (not (= (_ bv2 8) x57)))
(assert (not (= (_ bv2 8) (_ bv4 8))))
(assert (not (= (_ bv2 8) x77)))
(assert (not (= (_ bv2 8) (_ bv5 8))))
(assert (not (= (_ bv7 8) x27)))
(assert (not (= (_ bv7 8) (_ bv6 8))))
(assert (not (= (_ bv7 8) x47)))
(assert (not (= (_ bv7 8) x57)))
(assert (not (= (_ bv7 8) (_ bv4 8))))
(assert (not (= (_ bv7 8) x77)))
(assert (not (= (_ bv7 8) (_ bv5 8))))
(assert (not (= x27 (_ bv6 8))))
(assert (not (= x27 x47)))
(assert (not (= x27 x57)))
(assert (not (= x27 (_ bv4 8))))
(assert (not (= x27 x77)))
(assert (not (= x27 (_ bv5 8))))
(assert (not (= (_ bv6 8) x47)))
(assert (not (= (_ bv6 8) x57)))
(assert (not (= (_ bv6 8) (_ bv4 8))))
(assert (not (= (_ bv6 8) x77)))
(assert (not (= (_ bv6 8) (_ bv5 8))))
(assert (not (= x47 x57)))
(assert (not (= x47 (_ bv4 8))))
(assert (not (= x47 x77)))
(assert (not (= x47 (_ bv5 8))))
(assert (not (= x57 (_ bv4 8))))
(assert (not (= x57 x77)))
(assert (not (= x57 (_ bv5 8))))
(assert (not (= (_ bv4 8) x77)))
(assert (not (= (_ bv4 8) (_ bv5 8))))
(assert (not (= x77 (_ bv5 8))))
(assert (not (= (_ bv1 8) x18)))
(assert (not (= (_ bv1 8) (_ bv9 8))))
(assert (not (= (_ bv1 8) x38)))
(assert (not (= (_ bv1 8) (_ bv4 8))))
(assert (not (= (_ bv1 8) (_ bv3 8))))
(assert (not (= (_ bv1 8) x68)))
(assert (not (= (_ bv1 8) x78)))
(assert (not (= (_ bv1 8) x88)))
(assert (not (= x18 (_ bv9 8))))
(assert (not (= x18 x38)))
(assert (not (= x18 (_ bv4 8))))
(assert (not (= x18 (_ bv3 8))))
(assert (not (= x18 x68)))
(assert (not (= x18 x78)))
(assert (not (= x18 x88)))
(assert (not (= (_ bv9 8) x38)))
(assert (not (= (_ bv9 8) (_ bv4 8))))
(assert (not (= (_ bv9 8) (_ bv3 8))))
(assert (not (= (_ bv9 8) x68)))
(assert (not (= (_ bv9 8) x78)))
(assert (not (= (_ bv9 8) x88)))
(assert (not (= x38 (_ bv4 8))))
(assert (not (= x38 (_ bv3 8))))
(assert (not (= x38 x68)))
(assert (not (= x38 x78)))
(assert (not (= x38 x88)))
(assert (not (= (_ bv4 8) (_ bv3 8))))
(assert (not (= (_ bv4 8) x68)))
(assert (not (= (_ bv4 8) x78)))
(assert (not (= (_ bv4 8) x88)))
(assert (not (= (_ bv3 8) x68)))
(assert (not (= (_ bv3 8) x78)))
(assert (not (= (_ bv3 8) x88)))
(assert (not (= x68 x78)))
(assert (not (= x68 x88)))
(assert (not (= x78 x88)))
(assert (not (= (_ bv6 8) (_ bv4 8))))
(assert (not (= (_ bv6 8) x02)))
(assert (not (= (_ bv6 8) x10)))
(assert (not (= (_ bv6 8) (_ bv8 8))))
(assert (not (= (_ bv6 8) x12)))
(assert (not (= (_ bv6 8) x20)))
(assert (not (= (_ bv6 8) x21)))
(assert (not (= (_ bv6 8) x22)))
(assert (not (= (_ bv4 8) x02)))
(assert (not (= (_ bv4 8) x10)))
(assert (not (= (_ bv4 8) (_ bv8 8))))
(assert (not (= (_ bv4 8) x12)))
(assert (not (= (_ bv4 8) x20)))
(assert (not (= (_ bv4 8) x21)))
(assert (not (= (_ bv4 8) x22)))
(assert (not (= x02 x10)))
(assert (not (= x02 (_ bv8 8))))
(assert (not (= x02 x12)))
(assert (not (= x02 x20)))
(assert (not (= x02 x21)))
(assert (not (= x02 x22)))
(assert (not (= x10 (_ bv8 8))))
(assert (not (= x10 x12)))
(assert (not (= x10 x20)))
(assert (not (= x10 x21)))
(assert (not (= x10 x22)))
(assert (not (= (_ bv8 8) x12)))
(assert (not (= (_ bv8 8) x20)))
(assert (not (= (_ bv8 8) x21)))
(assert (not (= (_ bv8 8) x22)))
(assert (not (= x12 x20)))
(assert (not (= x12 x21)))
(assert (not (= x12 x22)))
(assert (not (= x20 x21)))
(assert (not (= x20 x22)))
(assert (not (= x21 x22)))
(assert (not (= x03 x04)))
(assert (not (= x03 (_ bv5 8))))
(assert (not (= x03 (_ bv6 8))))
(assert (not (= x03 x14)))
(assert (not (= x03 (_ bv3 8))))
(assert (not (= x03 x23)))
(assert (not (= x03 (_ bv2 8))))
(assert (not (= x03 x25)))
(assert (not (= x04 (_ bv5 8))))
(assert (not (= x04 (_ bv6 8))))
(assert (not (= x04 x14)))
(assert (not (= x04 (_ bv3 8))))
(assert (not (= x04 x23)))
(assert (not (= x04 (_ bv2 8))))
(assert (not (= x04 x25)))
(assert (not (= (_ bv5 8) (_ bv6 8))))
(assert (not (= (_ bv5 8) x14)))
(assert (not (= (_ bv5 8) (_ bv3 8))))
(assert (not (= (_ bv5 8) x23)))
(assert (not (= (_ bv5 8) (_ bv2 8))))
(assert (not (= (_ bv5 8) x25)))
(assert (not (= (_ bv6 8) x14)))
(assert (not (= (_ bv6 8) (_ bv3 8))))
(assert (not (= (_ bv6 8) x23)))
(assert (not (= (_ bv6 8) (_ bv2 8))))
(assert (not (= (_ bv6 8) x25)))
(assert (not (= x14 (_ bv3 8))))
(assert (not (= x14 x23)))
(assert (not (= x14 (_ bv2 8))))
(assert (not (= x14 x25)))
(assert (not (= (_ bv3 8) x23)))
(assert (not (= (_ bv3 8) (_ bv2 8))))
(assert (not (= (_ bv3 8) x25)))
(assert (not (= x23 (_ bv2 8))))
(assert (not (= x23 x25)))
(assert (not (= (_ bv2 8) x25)))
(assert (not (= x06 (_ bv2 8))))
(assert (not (= x06 (_ bv1 8))))
(assert (not (= x06 x16)))
(assert (not (= x06 (_ bv7 8))))
(assert (not (= x06 x18)))
(assert (not (= x06 x26)))
(assert (not (= x06 x27)))
(assert (not (= x06 (_ bv9 8))))
(assert (not (= (_ bv2 8) (_ bv1 8))))
(assert (not (= (_ bv2 8) x16)))
(assert (not (= (_ bv2 8) (_ bv7 8))))
(assert (not (= (_ bv2 8) x18)))
(assert (not (= (_ bv2 8) x26)))
(assert (not (= (_ bv2 8) x27)))
(assert (not (= (_ bv2 8) (_ bv9 8))))
(assert (not (= (_ bv1 8) x16)))
(assert (not (= (_ bv1 8) (_ bv7 8))))
(assert (not (= (_ bv1 8) x18)))
(assert (not (= (_ bv1 8) x26)))
(assert (not (= (_ bv1 8) x27)))
(assert (not (= (_ bv1 8) (_ bv9 8))))
(assert (not (= x16 (_ bv7 8))))
(assert (not (= x16 x18)))
(assert (not (= x16 x26)))
(assert (not (= x16 x27)))
(assert (not (= x16 (_ bv9 8))))
(assert (not (= (_ bv7 8) x18)))
(assert (not (= (_ bv7 8) x26)))
(assert (not (= (_ bv7 8) x27)))
(assert (not (= (_ bv7 8) (_ bv9 8))))
(assert (not (= x18 x26)))
(assert (not (= x18 x27)))
(assert (not (= x18 (_ bv9 8))))
(assert (not (= x26 x27)))
(assert (not (= x26 (_ bv9 8))))
(assert (not (= x27 (_ bv9 8))))
(assert (not (= (_ bv5 8) x31)))
(assert (not (= (_ bv5 8) x32)))
(assert (not (= (_ bv5 8) (_ bv1 8))))
(assert (not (= (_ bv5 8) (_ bv3 8))))
(assert (not (= (_ bv5 8) x42)))
(assert (not (= (_ bv5 8) (_ bv2 8))))
(assert (not (= (_ bv5 8) x51)))
(assert (not (= (_ bv5 8) x52)))
(assert (not (= x31 x32)))
(assert (not (= x31 (_ bv1 8))))
(assert (not (= x31 (_ bv3 8))))
(assert (not (= x31 x42)))
(assert (not (= x31 (_ bv2 8))))
(assert (not (= x31 x51)))
(assert (not (= x31 x52)))
(assert (not (= x32 (_ bv1 8))))
(assert (not (= x32 (_ bv3 8))))
(assert (not (= x32 x42)))
(assert (not (= x32 (_ bv2 8))))
(assert (not (= x32 x51)))
(assert (not (= x32 x52)))
(assert (not (= (_ bv1 8) (_ bv3 8))))
(assert (not (= (_ bv1 8) x42)))
(assert (not (= (_ bv1 8) (_ bv2 8))))
(assert (not (= (_ bv1 8) x51)))
(assert (not (= (_ bv1 8) x52)))
(assert (not (= (_ bv3 8) x42)))
(assert (not (= (_ bv3 8) (_ bv2 8))))
(assert (not (= (_ bv3 8) x51)))
(assert (not (= (_ bv3 8) x52)))
(assert (not (= x42 (_ bv2 8))))
(assert (not (= x42 x51)))
(assert (not (= x42 x52)))
(assert (not (= (_ bv2 8) x51)))
(assert (not (= (_ bv2 8) x52)))
(assert (not (= x51 x52)))
(assert (not (= (_ bv8 8) x34)))
(assert (not (= (_ bv8 8) x35)))
(assert (not (= (_ bv8 8) x43)))
(assert (not (= (_ bv8 8) (_ bv6 8))))
(assert (not (= (_ bv8 8) (_ bv7 8))))
(assert (not (= (_ bv8 8) x53)))
(assert (not (= (_ bv8 8) x54)))
(assert (not (= (_ bv8 8) x55)))
(assert (not (= x34 x35)))
(assert (not (= x34 x43)))
(assert (not (= x34 (_ bv6 8))))
(assert (not (= x34 (_ bv7 8))))
(assert (not (= x34 x53)))
(assert (not (= x34 x54)))
(assert (not (= x34 x55)))
(assert (not (= x35 x43)))
(assert (not (= x35 (_ bv6 8))))
(assert (not (= x35 (_ bv7 8))))
(assert (not (= x35 x53)))
(assert (not (= x35 x54)))
(assert (not (= x35 x55)))
(assert (not (= x43 (_ bv6 8))))
(assert (not (= x43 (_ bv7 8))))
(assert (not (= x43 x53)))
(assert (not (= x43 x54)))
(assert (not (= x43 x55)))
(assert (not (= (_ bv6 8) (_ bv7 8))))
(assert (not (= (_ bv6 8) x53)))
(assert (not (= (_ bv6 8) x54)))
(assert (not (= (_ bv6 8) x55)))
(assert (not (= (_ bv7 8) x53)))
(assert (not (= (_ bv7 8) x54)))
(assert (not (= (_ bv7 8) x55)))
(assert (not (= x53 x54)))
(assert (not (= x53 x55)))
(assert (not (= x54 x55)))
(assert (not (= (_ bv2 8) (_ bv6 8))))
(assert (not (= (_ bv2 8) x38)))
(assert (not (= (_ bv2 8) x46)))
(assert (not (= (_ bv2 8) x47)))
(assert (not (= (_ bv2 8) (_ bv4 8))))
(assert (not (= (_ bv2 8) (_ bv1 8))))
(assert (not (= (_ bv2 8) x57)))
(assert (not (= (_ bv2 8) (_ bv3 8))))
(assert (not (= (_ bv6 8) x38)))
(assert (not (= (_ bv6 8) x46)))
(assert (not (= (_ bv6 8) x47)))
(assert (not (= (_ bv6 8) (_ bv4 8))))
(assert (not (= (_ bv6 8) (_ bv1 8))))
(assert (not (= (_ bv6 8) x57)))
(assert (not (= (_ bv6 8) (_ bv3 8))))
(assert (not (= x38 x46)))
(assert (not (= x38 x47)))
(assert (not (= x38 (_ bv4 8))))
(assert (not (= x38 (_ bv1 8))))
(assert (not (= x38 x57)))
(assert (not (= x38 (_ bv3 8))))
(assert (not (= x46 x47)))
(assert (not (= x46 (_ bv4 8))))
(assert (not (= x46 (_ bv1 8))))
(assert (not (= x46 x57)))
(assert (not (= x46 (_ bv3 8))))
(assert (not (= x47 (_ bv4 8))))
(assert (not (= x47 (_ bv1 8))))
(assert (not (= x47 x57)))
(assert (not (= x47 (_ bv3 8))))
(assert (not (= (_ bv4 8) (_ bv1 8))))
(assert (not (= (_ bv4 8) x57)))
(assert (not (= (_ bv4 8) (_ bv3 8))))
(assert (not (= (_ bv1 8) x57)))
(assert (not (= (_ bv1 8) (_ bv3 8))))
(assert (not (= x57 (_ bv3 8))))
(assert (not (= (_ bv3 8) x61)))
(assert (not (= (_ bv3 8) x62)))
(assert (not (= (_ bv3 8) x70)))
(assert (not (= (_ bv3 8) (_ bv6 8))))
(assert (not (= (_ bv3 8) x72)))
(assert (not (= (_ bv3 8) x80)))
(assert (not (= (_ bv3 8) x81)))
(assert (not (= (_ bv3 8) (_ bv9 8))))
(assert (not (= x61 x62)))
(assert (not (= x61 x70)))
(assert (not (= x61 (_ bv6 8))))
(assert (not (= x61 x72)))
(assert (not (= x61 x80)))
(assert (not (= x61 x81)))
(assert (not (= x61 (_ bv9 8))))
(assert (not (= x62 x70)))
(assert (not (= x62 (_ bv6 8))))
(assert (not (= x62 x72)))
(assert (not (= x62 x80)))
(assert (not (= x62 x81)))
(assert (not (= x62 (_ bv9 8))))
(assert (not (= x70 (_ bv6 8))))
(assert (not (= x70 x72)))
(assert (not (= x70 x80)))
(assert (not (= x70 x81)))
(assert (not (= x70 (_ bv9 8))))
(assert (not (= (_ bv6 8) x72)))
(assert (not (= (_ bv6 8) x80)))
(assert (not (= (_ bv6 8) x81)))
(assert (not (= (_ bv6 8) (_ bv9 8))))
(assert (not (= x72 x80)))
(assert (not (= x72 x81)))
(assert (not (= x72 (_ bv9 8))))
(assert (not (= x80 x81)))
(assert (not (= x80 (_ bv9 8))))
(assert (not (= x81 (_ bv9 8))))
(assert (not (= (_ bv1 8) (_ bv5 8))))
(assert (not (= (_ bv1 8) x65)))
(assert (not (= (_ bv1 8) x73)))
(assert (not (= (_ bv1 8) (_ bv4 8))))
(assert (not (= (_ bv1 8) x75)))
(assert (not (= (_ bv1 8) x83)))
(assert (not (= (_ bv1 8) (_ bv8 8))))
(assert (not (= (_ bv1 8) (_ bv2 8))))
(assert (not (= (_ bv5 8) x65)))
(assert (not (= (_ bv5 8) x73)))
(assert (not (= (_ bv5 8) (_ bv4 8))))
(assert (not (= (_ bv5 8) x75)))
(assert (not (= (_ bv5 8) x83)))
(assert (not (= (_ bv5 8) (_ bv8 8))))
(assert (not (= (_ bv5 8) (_ bv2 8))))
(assert (not (= x65 x73)))
(assert (not (= x65 (_ bv4 8))))
(assert (not (= x65 x75)))
(assert (not (= x65 x83)))
(assert (not (= x65 (_ bv8 8))))
(assert (not (= x65 (_ bv2 8))))
(assert (not (= x73 (_ bv4 8))))
(assert (not (= x73 x75)))
(assert (not (= x73 x83)))
(assert (not (= x73 (_ bv8 8))))
(assert (not (= x73 (_ bv2 8))))
(assert (not (= (_ bv4 8) x75)))
(assert (not (= (_ bv4 8) x83)))
(assert (not (= (_ bv4 8) (_ bv8 8))))
(assert (not (= (_ bv4 8) (_ bv2 8))))
(assert (not (= x75 x83)))
(assert (not (= x75 (_ bv8 8))))
(assert (not (= x75 (_ bv2 8))))
(assert (not (= x83 (_ bv8 8))))
(assert (not (= x83 (_ bv2 8))))
(assert (not (= (_ bv8 8) (_ bv2 8))))
(assert (not (= x66 (_ bv4 8))))
(assert (not (= x66 x68)))
(assert (not (= x66 x76)))
(assert (not (= x66 x77)))
(assert (not (= x66 x78)))
(assert (not (= x66 (_ bv7 8))))
(assert (not (= x66 (_ bv5 8))))
(assert (not (= x66 x88)))
(assert (not (= (_ bv4 8) x68)))
(assert (not (= (_ bv4 8) x76)))
(assert (not (= (_ bv4 8) x77)))
(assert (not (= (_ bv4 8) x78)))
(assert (not (= (_ bv4 8) (_ bv7 8))))
(assert (not (= (_ bv4 8) (_ bv5 8))))
(assert (not (= (_ bv4 8) x88)))
(assert (not (= x68 x76)))
(assert (not (= x68 x77)))
(assert (not (= x68 x78)))
(assert (not (= x68 (_ bv7 8))))
(assert (not (= x68 (_ bv5 8))))
(assert (not (= x68 x88)))
(assert (not (= x76 x77)))
(assert (not (= x76 x78)))
(assert (not (= x76 (_ bv7 8))))
(assert (not (= x76 (_ bv5 8))))
(assert (not (= x76 x88)))
(assert (not (= x77 x78)))
(assert (not (= x77 (_ bv7 8))))
(assert (not (= x77 (_ bv5 8))))
(assert (not (= x77 x88)))
(assert (not (= x78 (_ bv7 8))))
(assert (not (= x78 (_ bv5 8))))
(assert (not (= x78 x88)))
(assert (not (= (_ bv7 8) (_ bv5 8))))
(assert (not (= (_ bv7 8) x88)))
(assert (not (= (_ bv5 8) x88)))
(check-sat)
(exit)
